[[19, 35, 53, 14, 59, 11, 66, 65, 38, 10, 58, 72, 31, 39, 9, 25, 55, 18, 50, 32, 40, 12, 17], [51, 44, 3, 16, 24, 49, 63, 23, 56, 43, 41, 42, 64, 22, 61, 28, 74, 62, 73, 33, 2, 6, 68, 75, 76, 4], [30, 45, 29, 5, 48, 47, 21, 69, 36, 71, 60, 70, 20, 37, 15, 57, 13, 54, 27, 52, 34, 46, 67, 26, 7, 8]]